p cnf 25 58
a 14 6 0
e 1 2 3 4 5 7 8 9 10 11 12 13 15 16 17 18 19 20 21 22 23 24 25 0
-1 2 0
1 2 0
5 3 0
5 4 0
-3 -4 -5 0
6 5 0
6 5 0
-5 -6 0
2 6 -7 0
-2 -6 -7 0
2 -6 7 0
-2 6 7 0
8 -9 0
-8 -9 0
10 9 0
10 -3 0
-9 3 -10 0
-12 -10 0
-12 -11 0
10 11 12 0
-7 -12 -13 0
7 12 -13 0
-7 12 13 0
7 -12 13 0
-15 4 0
-15 -14 0
-4 14 15 0
-16 -14 0
-16 5 0
14 -5 16 0
-17 -15 0
-17 16 0
15 -16 17 0
1 18 -19 0
-1 -18 -19 0
1 -18 19 0
-1 18 19 0
20 19 0
20 -3 0
-19 3 -20 0
-21 -17 0
-21 20 0
17 -20 21 0
-23 4 0
-23 22 0
-4 -22 23 0
-24 -21 0
-24 -23 0
21 23 24 0
-25 -13 0
-25 24 0
13 -24 25 0
6 -7 -12 -5 -4 20 8 0
-2 -9 12 25 -3 0
21 -25 -15 -11 0
25 8 24 0
-9 -21 3 -11 24 0
25 0
